* ENCODING=ISO-8859-1
NAME          toy2
ROWS
 N  obj1    
 L  c1      
 G  c2      
COLUMNS
    x         c1                              1
    x         c2                             -1
    y         obj1                            1
    y         c2                              1
RHS
    rhs       c1                              1
BOUNDS
 LO bnd       x                               0
 LO bnd       y                             -10
ENDATA
